instances/in_60_30_7_3.dzn
n = 60;
k = 30;
h = 7;
tiles = array2d(1..n, 1..2,
[ 12,10
, 1,10
, 12,6
, 29,23
, 7,18
, 16,20
, 24,5
, 13,25
, 28,7
, 13,29
, 11,20
, 6,23
, 20,4
, 5,11
, 12,23
, 23,4
, 17,15
, 2,28
, 21,30
, 4,3
, 18,17
, 27,9
, 12,22
, 13,8
, 2,9
, 18,17
, 18,28
, 28,29
, 6,17
, 9,4
, 15,3
, 11,16
, 29,20
, 23,21
, 29,20
, 15,28
, 23,4
, 7,9
, 4,9
, 8,23
, 19,7
, 12,14
, 27,18
, 19,27
, 16,18
, 12,19
, 30,24
, 18,26
, 20,27
, 11,20
, 3,9
, 30,15
, 18,23
, 4,23
, 10,3
, 22,29
, 16,14
, 23,8
, 28,16
, 30,23
]);