instances/in_60_30_7_3.lp
#const n = 60.
#const k = 30.
#const h = 7.
tile(1,12,10).
tile(2,1,10).
tile(3,12,6).
tile(4,29,23).
tile(5,7,18).
tile(6,16,20).
tile(7,24,5).
tile(8,13,25).
tile(9,28,7).
tile(10,13,29).
tile(11,11,20).
tile(12,6,23).
tile(13,20,4).
tile(14,5,11).
tile(15,12,23).
tile(16,23,4).
tile(17,17,15).
tile(18,2,28).
tile(19,21,30).
tile(20,4,3).
tile(21,18,17).
tile(22,27,9).
tile(23,12,22).
tile(24,13,8).
tile(25,2,9).
tile(26,18,17).
tile(27,18,28).
tile(28,28,29).
tile(29,6,17).
tile(30,9,4).
tile(31,15,3).
tile(32,11,16).
tile(33,29,20).
tile(34,23,21).
tile(35,29,20).
tile(36,15,28).
tile(37,23,4).
tile(38,7,9).
tile(39,4,9).
tile(40,8,23).
tile(41,19,7).
tile(42,12,14).
tile(43,27,18).
tile(44,19,27).
tile(45,16,18).
tile(46,12,19).
tile(47,30,24).
tile(48,18,26).
tile(49,20,27).
tile(50,11,20).
tile(51,3,9).
tile(52,30,15).
tile(53,18,23).
tile(54,4,23).
tile(55,10,3).
tile(56,22,29).
tile(57,16,14).
tile(58,23,8).
tile(59,28,16).
tile(60,30,23).
